c 54_4_checker_5cl.cnf
c
c field = 54
c formula set type = 4_checker_5cl
c
p cnf 5 6
16 
46 
76 
136 
-166 
17 
47 
77 
137 
-167 
10 
42 
74 
138 
-170 
11 
43 
75 
139 
-171 
22 
50 
78 
134 
-162 
23 
51 
79 
135 
-163 
